WARNING: for repeatability, setting FPU to use double precision
============================[ Problem Statistics ]=============================
|                                                                             |
|  Number of variables:           285                                         |
|  Number of clauses:            1176                                         |
|  Parse time:                   0.00 s                                       |
|                                                                             |
============================[ Search Statistics ]==============================
| Conflicts |          ORIGINAL         |          LEARNT          | Progress |
|           |    Vars  Clauses Literals |    Limit  Clauses Lit/Cl |          |
===============================================================================
|       100 |     285     1176     3423 |      431      100      9 |  0.002 % |
|       250 |     285     1176     3423 |      474      250      8 |  0.004 % |
|       475 |     283     1166     3395 |      521      312      8 |  0.703 % |
===============================================================================
restarts              : 7
conflicts             : 809            (101125 /sec)
decisions             : 988            (0.00 % random) (123500 /sec)
propagations          : 41279          (5159875 /sec)
conflict literals     : 5839           (34.52 % deleted)
Memory used           : 19.00 MB
CPU time              : 0.008 s

UNSATISFIABLE
